(declare-const |i':35| Int)
(declare-const |sn':36| Int)
(declare-const |phi_tmp:12:14| Int)
(declare-const |phi_tmp:8:11:13| Int)
(declare-const |K:41| Int)
(assert (and (or (not (and (<= (- |K:41|) 0) (<= |K:41| 0)))
                   (= (+ |sn':36| (* -2 |K:41|)) 0))
               (or (not (<= (+ (- |K:41|) 1) 0))
                     (= (+ |sn':36| (* -2 |K:41|)) 0))
               (or (not (and (<= (- |K:41|) 0) (<= |K:41| 0)))
                     (= (+ |i':35| (- |K:41|) -1) 0))
               (or (not (<= (+ (- |K:41|) 1) 0))
                     (= (+ |i':35| (- |K:41|) -1) 0))
               (or (and (= |K:41| 0) (= (- |sn':36|) 0)
                          (= (+ (- |i':35|) 1) 0))
                     (and (<= (+ (- |K:41|) 1) 0)
                            (= (+ (* 2 |i':35|) (- |sn':36|) -2) 0)
                            (<= (+ |sn':36| -16) 0) (<= (+ (- |sn':36|) 2) 0)))
               (<= (- |K:41|) 0) (<= (- |sn':36|) 0) (< (- |i':35|) 0)
               (= (+ (* -2 |i':35|) |sn':36| 2) 0) (< (+ (- |i':35|) 8) 0)
               (or (and (not (= (+ |sn':36| -16) 0))
                          (or (and (not (= |sn':36| 0))
                                     (= (- |phi_tmp:8:11:13|) 0))
                                (and (= |sn':36| 0)
                                       (= (+ (- |phi_tmp:8:11:13|) 1) 0)))
                          (= (+ (- |phi_tmp:12:14|) |phi_tmp:8:11:13|) 0))
                     (and (= (+ |sn':36| -16) 0)
                            (= (+ (- |phi_tmp:12:14|) 1) 0)))
               (= |phi_tmp:12:14| 0)))
(check-sat)
